234 300 115 144 147 138 114 130 127 102 120 119 134 102 119 150 125 128 119 102 130 118 134 137 120 126 103 128 101 131 110 125 102 125 144 123 137 107 128 138 109 122 107 117 149 126 116 123 128 135 150 108 128 108 119 148 134 123 100 136 128 110 135 131 109 128 128 146 109 105 107 118 127 114 135 125 114 125 122 143 135 147 100 137 104 144 108 138 116 108 148 145 143 107 150 126 109 127 146 119 133 103 137 134 117 147 134 132 146 130 124 104 126 149 141 130 142 124 143 133 132 114 101 150 121 100 125 131 127 121 150 134 124 110 143 115 131 100 147 101 130 145 105 106 117 121 110 134 119 102 116 100 117 117 150 112 142 150 117 143 120 116 127 118 101 144 107 106 144 104 107 123 123 138 129 141 133 114 124 101 116 114 126 107 105 100 120 147 150 111 139 144 102 140 136 103 107 143 109 100 121 142 149 145 129 101 109 136 115 107 111 132 121 137 113 100 137 107 147 110 119 109 103 121 124 113 124 131 106 107 132 127 123 104 146 126 